(set-logic QF_S)
(declare-fun var0 () String)
(assert (RegexIn var0 (RegexConcat (RegexUnion (RegexPlus (Str2Reg "00")) (RegexPlus (Str2Reg "11"))) (RegexConcat (RegexPlus (RegexStar (Str2Reg "222"))) (RegexConcat (RegexPlus (RegexStar (Str2Reg "3"))) (RegexConcat (RegexPlus (RegexUnion (Str2Reg "444") (Str2Reg "55"))) (RegexConcat (RegexPlus (RegexStar (Str2Reg "6"))) (RegexConcat (RegexPlus (RegexUnion (Str2Reg "777") (Str2Reg "888"))) (RegexConcat (RegexStar (RegexPlus (Str2Reg "9"))) (RegexConcat (RegexPlus (RegexPlus (Str2Reg "aaa"))) (RegexConcat (RegexStar (RegexStar (Str2Reg "bb"))) (RegexConcat (RegexStar (RegexUnion (Str2Reg "cc") (Str2Reg "ddd"))) (RegexConcat (RegexStar (RegexStar (Str2Reg "eee"))) (RegexConcat (RegexPlus (RegexPlus (Str2Reg "fff"))) (RegexConcat (RegexUnion (RegexStar (Str2Reg "ggg")) (RegexStar (Str2Reg "h"))) (RegexConcat (RegexPlus (RegexPlus (Str2Reg "iii"))) (RegexConcat (RegexPlus (RegexStar (Str2Reg "jj"))) (RegexConcat (RegexStar (RegexUnion (Str2Reg "k") (Str2Reg "ll"))) (RegexConcat (RegexStar (RegexPlus (Str2Reg "mm"))) (RegexConcat (RegexStar (RegexPlus (Str2Reg "nn"))) (RegexConcat (RegexStar (RegexStar (Str2Reg "ooo"))) (RegexConcat (RegexUnion (RegexStar (Str2Reg "pp")) (RegexStar (Str2Reg "qq"))) (RegexConcat (RegexStar (RegexUnion (Str2Reg "rr") (Str2Reg "sss"))) (RegexConcat (RegexStar (RegexUnion (Str2Reg "t") (Str2Reg "uu"))) (RegexConcat (RegexUnion (RegexStar (Str2Reg "vv")) (RegexStar (Str2Reg "w"))) (RegexConcat (RegexStar (RegexUnion (Str2Reg "xxx") (Str2Reg "yy"))) (RegexConcat (RegexUnion (RegexPlus (Str2Reg "zz")) (RegexPlus (Str2Reg "A"))) (RegexConcat (RegexStar (RegexUnion (Str2Reg "BB") (Str2Reg "C"))) (RegexConcat (RegexUnion (RegexStar (Str2Reg "DDD")) (RegexStar (Str2Reg "EE"))) (RegexConcat (RegexPlus (RegexUnion (Str2Reg "FF") (Str2Reg "GGG"))) (RegexConcat (RegexStar (RegexUnion (Str2Reg "HHH") (Str2Reg "II"))) (RegexConcat (RegexStar (RegexPlus (Str2Reg "JJJ"))) (RegexConcat (RegexStar (RegexPlus (Str2Reg "KKK"))) (RegexConcat (RegexPlus (RegexUnion (Str2Reg "LLL") (Str2Reg "MM"))) (RegexConcat (RegexStar (RegexPlus (Str2Reg "NN"))) (RegexConcat (RegexPlus (RegexPlus (Str2Reg "OOO"))) (RegexConcat (RegexStar (RegexPlus (Str2Reg "PP"))) (RegexConcat (RegexUnion (RegexStar (Str2Reg "Q")) (RegexStar (Str2Reg "RR"))) (RegexConcat (RegexPlus (RegexPlus (Str2Reg "S"))) (RegexConcat (RegexUnion (RegexUnion (Str2Reg "TTT") (Str2Reg "UU")) (RegexUnion (Str2Reg "VV") (Str2Reg "W"))) (RegexConcat (RegexPlus (RegexUnion (Str2Reg "X") (Str2Reg "YYY"))) (RegexConcat (RegexUnion (RegexPlus (Str2Reg "ZZZ")) (RegexPlus (Str2Reg "!!"))) (RegexConcat (RegexStar (RegexUnion (Str2Reg "\"\"\"") (Str2Reg "###"))) (RegexConcat (RegexStar (RegexStar (Str2Reg "$$"))) (RegexConcat (RegexUnion (RegexStar (Str2Reg "%")) (RegexStar (Str2Reg "&&"))) (RegexConcat (RegexPlus (RegexUnion (Str2Reg "'''") (Str2Reg "((("))) (RegexConcat (RegexPlus (RegexStar (Str2Reg ")))"))) (RegexConcat (RegexStar (RegexPlus (Str2Reg "**"))) (RegexConcat (RegexStar (RegexPlus (Str2Reg "+++"))) (RegexConcat (RegexUnion (RegexUnion (Str2Reg ",,") (Str2Reg "--")) (RegexUnion (Str2Reg ".") (Str2Reg "/"))) (RegexConcat (RegexUnion (RegexUnion (Str2Reg ":::") (Str2Reg ";")) (RegexUnion (Str2Reg "<") (Str2Reg "="))) (RegexConcat (RegexUnion (RegexPlus (Str2Reg ">")) (RegexPlus (Str2Reg "?"))) (RegexConcat (RegexPlus (RegexUnion (Str2Reg "@@") (Str2Reg "["))) (RegexConcat (RegexUnion (RegexUnion (Str2Reg "\\\\") (Str2Reg "]")) (RegexUnion (Str2Reg "^^^") (Str2Reg "__"))) (RegexConcat (RegexUnion (RegexStar (Str2Reg "``")) (RegexStar (Str2Reg "{{"))) (RegexConcat (RegexStar (RegexStar (Str2Reg "|||"))) (RegexConcat (RegexUnion (RegexPlus (Str2Reg "}")) (RegexPlus (Str2Reg "~~~"))) (RegexConcat (RegexPlus (RegexPlus (Str2Reg "00"))) (RegexConcat (RegexStar (RegexUnion (Str2Reg "111") (Str2Reg "22"))) (RegexConcat (RegexStar (RegexPlus (Str2Reg "3"))) (RegexConcat (RegexPlus (RegexUnion (Str2Reg "4") (Str2Reg "55"))) (RegexConcat (RegexPlus (RegexPlus (Str2Reg "666"))) (RegexConcat (RegexUnion (RegexStar (Str2Reg "7")) (RegexStar (Str2Reg "8"))) (RegexConcat (RegexPlus (RegexPlus (Str2Reg "9"))) (RegexConcat (RegexPlus (RegexUnion (Str2Reg "aaa") (Str2Reg "b"))) (RegexUnion (RegexStar (Str2Reg "c")) (RegexStar (Str2Reg "ddd"))))))))))))))))))))))))))))))))))))))))))))))))))))))))))))))))))))
(check-sat)